out/production/KConstraintMultipleKnapsackProblem/zimpl/lpfiles/knapsack50nr2.lp
\ This file was automatically generated by Zimpl
\ param file := "instances/knapsack50nr2.txt";
\ param n := read file as "1n" use 1 comment "#";
\ do print n;
\ param m := read file as "1n" skip 1 use 1 comment "#";
\ do print m;
\ param k := read file as "1n" skip 2 use 1 comment "#";
\ do print k;
\ set Items := {1 to n};
\ set Knapsacks := {1 to m};
\ set Capacities := {1 to k};
\ param p[Items] := read file as "1n" skip 3 use n comment "#";
\ param w[Items*Capacities] := read file as "n+" skip 3+n use n comment "#";
\ param c[Knapsacks*Capacities] := read file as "n+" skip 3+2*n use m comment "#";
\ var x[Knapsacks * Items] binary;
\ maximize profit: sum <i> in Knapsacks: sum <j> in Items: p[j]* x[i,j];
\ subto cap: forall <i> in Knapsacks: forall <h> in Capacities: sum <j> in Items: w[j,h]*x[i,j] <= c[i,h];
\ subto one: forall <j> in Items: sum <i> in Knapsacks: x[i,j] <= 1;
\Problem name: zimplfiles/knapsack50nr2.zpl
Maximize
 profit:  +6 x#1#1 +18 x#1#2 +48 x#1#3 +90 x#1#4 +90 x#1#5 +85 x#1#6
  +78 x#1#7 +67 x#1#8 +5 x#1#9 +87 x#1#10 +72 x#1#11 +23 x#1#12
  +20 x#1#13 +78 x#1#14 +47 x#1#15 +86 x#1#16 +20 x#1#17 +48 x#1#18
  +8 x#1#19 +80 x#1#20 +81 x#1#21 +77 x#1#22 +32 x#1#23 +89 x#1#24
  +22 x#1#25 +14 x#1#26 +13 x#1#27 +20 x#1#28 +38 x#1#29 +66 x#1#30
  +84 x#1#31 +15 x#1#32 +86 x#1#33 +37 x#1#34 +89 x#1#35 +34 x#1#36
  +60 x#1#37 +30 x#1#38 +41 x#1#39 +36 x#1#40 +9 x#1#41 +45 x#1#42
  +71 x#1#43 +8 x#1#44 +39 x#1#45 +70 x#1#46 +71 x#1#47 +49 x#1#48
  + x#1#49 +51 x#1#50 +6 x#2#1 +18 x#2#2 +48 x#2#3 +90 x#2#4
  +90 x#2#5 +85 x#2#6 +78 x#2#7 +67 x#2#8 +5 x#2#9 +87 x#2#10
  +72 x#2#11 +23 x#2#12 +20 x#2#13 +78 x#2#14 +47 x#2#15 +86 x#2#16
  +20 x#2#17 +48 x#2#18 +8 x#2#19 +80 x#2#20 +81 x#2#21 +77 x#2#22
  +32 x#2#23 +89 x#2#24 +22 x#2#25 +14 x#2#26 +13 x#2#27 +20 x#2#28
  +38 x#2#29 +66 x#2#30 +84 x#2#31 +15 x#2#32 +86 x#2#33 +37 x#2#34
  +89 x#2#35 +34 x#2#36 +60 x#2#37 +30 x#2#38 +41 x#2#39 +36 x#2#40
  +9 x#2#41 +45 x#2#42 +71 x#2#43 +8 x#2#44 +39 x#2#45 +70 x#2#46
  +71 x#2#47 +49 x#2#48 + x#2#49 +51 x#2#50 +6 x#3#1 +18 x#3#2
  +48 x#3#3 +90 x#3#4 +90 x#3#5 +85 x#3#6 +78 x#3#7 +67 x#3#8
  +5 x#3#9 +87 x#3#10 +72 x#3#11 +23 x#3#12 +20 x#3#13 +78 x#3#14
  +47 x#3#15 +86 x#3#16 +20 x#3#17 +48 x#3#18 +8 x#3#19 +80 x#3#20
  +81 x#3#21 +77 x#3#22 +32 x#3#23 +89 x#3#24 +22 x#3#25 +14 x#3#26
  +13 x#3#27 +20 x#3#28 +38 x#3#29 +66 x#3#30 +84 x#3#31 +15 x#3#32
  +86 x#3#33 +37 x#3#34 +89 x#3#35 +34 x#3#36 +60 x#3#37 +30 x#3#38
  +41 x#3#39 +36 x#3#40 +9 x#3#41 +45 x#3#42 +71 x#3#43 +8 x#3#44
  +39 x#3#45 +70 x#3#46 +71 x#3#47 +49 x#3#48 + x#3#49 +51 x#3#50
  +6 x#4#1 +18 x#4#2 +48 x#4#3 +90 x#4#4 +90 x#4#5 +85 x#4#6
  +78 x#4#7 +67 x#4#8 +5 x#4#9 +87 x#4#10 +72 x#4#11 +23 x#4#12
  +20 x#4#13 +78 x#4#14 +47 x#4#15 +86 x#4#16 +20 x#4#17 +48 x#4#18
  +8 x#4#19 +80 x#4#20 +81 x#4#21 +77 x#4#22 +32 x#4#23 +89 x#4#24
  +22 x#4#25 +14 x#4#26 +13 x#4#27 +20 x#4#28 +38 x#4#29 +66 x#4#30
  +84 x#4#31 +15 x#4#32 +86 x#4#33 +37 x#4#34 +89 x#4#35 +34 x#4#36
  +60 x#4#37 +30 x#4#38 +41 x#4#39 +36 x#4#40 +9 x#4#41 +45 x#4#42
  +71 x#4#43 +8 x#4#44 +39 x#4#45 +70 x#4#46 +71 x#4#47 +49 x#4#48
  + x#4#49 +51 x#4#50 +6 x#5#1 +18 x#5#2 +48 x#5#3 +90 x#5#4
  +90 x#5#5 +85 x#5#6 +78 x#5#7 +67 x#5#8 +5 x#5#9 +87 x#5#10
  +72 x#5#11 +23 x#5#12 +20 x#5#13 +78 x#5#14 +47 x#5#15 +86 x#5#16
  +20 x#5#17 +48 x#5#18 +8 x#5#19 +80 x#5#20 +81 x#5#21 +77 x#5#22
  +32 x#5#23 +89 x#5#24 +22 x#5#25 +14 x#5#26 +13 x#5#27 +20 x#5#28
  +38 x#5#29 +66 x#5#30 +84 x#5#31 +15 x#5#32 +86 x#5#33 +37 x#5#34
  +89 x#5#35 +34 x#5#36 +60 x#5#37 +30 x#5#38 +41 x#5#39 +36 x#5#40
  +9 x#5#41 +45 x#5#42 +71 x#5#43 +8 x#5#44 +39 x#5#45 +70 x#5#46
  +71 x#5#47 +49 x#5#48 + x#5#49 +51 x#5#50 +6 x#6#1 +18 x#6#2
  +48 x#6#3 +90 x#6#4 +90 x#6#5 +85 x#6#6 +78 x#6#7 +67 x#6#8
  +5 x#6#9 +87 x#6#10 +72 x#6#11 +23 x#6#12 +20 x#6#13 +78 x#6#14
  +47 x#6#15 +86 x#6#16 +20 x#6#17 +48 x#6#18 +8 x#6#19 +80 x#6#20
  +81 x#6#21 +77 x#6#22 +32 x#6#23 +89 x#6#24 +22 x#6#25 +14 x#6#26
  +13 x#6#27 +20 x#6#28 +38 x#6#29 +66 x#6#30 +84 x#6#31 +15 x#6#32
  +86 x#6#33 +37 x#6#34 +89 x#6#35 +34 x#6#36 +60 x#6#37 +30 x#6#38
  +41 x#6#39 +36 x#6#40 +9 x#6#41 +45 x#6#42 +71 x#6#43 +8 x#6#44
  +39 x#6#45 +70 x#6#46 +71 x#6#47 +49 x#6#48 + x#6#49 +51 x#6#50
  +6 x#7#1 +18 x#7#2 +48 x#7#3 +90 x#7#4 +90 x#7#5 +85 x#7#6
  +78 x#7#7 +67 x#7#8 +5 x#7#9 +87 x#7#10 +72 x#7#11 +23 x#7#12
  +20 x#7#13 +78 x#7#14 +47 x#7#15 +86 x#7#16 +20 x#7#17 +48 x#7#18
  +8 x#7#19 +80 x#7#20 +81 x#7#21 +77 x#7#22 +32 x#7#23 +89 x#7#24
  +22 x#7#25 +14 x#7#26 +13 x#7#27 +20 x#7#28 +38 x#7#29 +66 x#7#30
  +84 x#7#31 +15 x#7#32 +86 x#7#33 +37 x#7#34 +89 x#7#35 +34 x#7#36
  +60 x#7#37 +30 x#7#38 +41 x#7#39 +36 x#7#40 +9 x#7#41 +45 x#7#42
  +71 x#7#43 +8 x#7#44 +39 x#7#45 +70 x#7#46 +71 x#7#47 +49 x#7#48
  + x#7#49 +51 x#7#50 +6 x#8#1 +18 x#8#2 +48 x#8#3 +90 x#8#4
  +90 x#8#5 +85 x#8#6 +78 x#8#7 +67 x#8#8 +5 x#8#9 +87 x#8#10
  +72 x#8#11 +23 x#8#12 +20 x#8#13 +78 x#8#14 +47 x#8#15 +86 x#8#16
  +20 x#8#17 +48 x#8#18 +8 x#8#19 +80 x#8#20 +81 x#8#21 +77 x#8#22
  +32 x#8#23 +89 x#8#24 +22 x#8#25 +14 x#8#26 +13 x#8#27 +20 x#8#28
  +38 x#8#29 +66 x#8#30 +84 x#8#31 +15 x#8#32 +86 x#8#33 +37 x#8#34
  +89 x#8#35 +34 x#8#36 +60 x#8#37 +30 x#8#38 +41 x#8#39 +36 x#8#40
  +9 x#8#41 +45 x#8#42 +71 x#8#43 +8 x#8#44 +39 x#8#45 +70 x#8#46
  +71 x#8#47 +49 x#8#48 + x#8#49 +51 x#8#50 +6 x#9#1 +18 x#9#2
  +48 x#9#3 +90 x#9#4 +90 x#9#5 +85 x#9#6 +78 x#9#7 +67 x#9#8
  +5 x#9#9 +87 x#9#10 +72 x#9#11 +23 x#9#12 +20 x#9#13 +78 x#9#14
  +47 x#9#15 +86 x#9#16 +20 x#9#17 +48 x#9#18 +8 x#9#19 +80 x#9#20
  +81 x#9#21 +77 x#9#22 +32 x#9#23 +89 x#9#24 +22 x#9#25 +14 x#9#26
  +13 x#9#27 +20 x#9#28 +38 x#9#29 +66 x#9#30 +84 x#9#31 +15 x#9#32
  +86 x#9#33 +37 x#9#34 +89 x#9#35 +34 x#9#36 +60 x#9#37 +30 x#9#38
  +41 x#9#39 +36 x#9#40 +9 x#9#41 +45 x#9#42 +71 x#9#43 +8 x#9#44
  +39 x#9#45 +70 x#9#46 +71 x#9#47 +49 x#9#48 + x#9#49 +51 x#9#50
  +6 x#10#1 +18 x#10#2 +48 x#10#3 +90 x#10#4 +90 x#10#5 +85 x#10#6
  +78 x#10#7 +67 x#10#8 +5 x#10#9 +87 x#10#10 +72 x#10#11 +23 x#10#12
  +20 x#10#13 +78 x#10#14 +47 x#10#15 +86 x#10#16 +20 x#10#17 +48 x#10#18
  +8 x#10#19 +80 x#10#20 +81 x#10#21 +77 x#10#22 +32 x#10#23 +89 x#10#24
  +22 x#10#25 +14 x#10#26 +13 x#10#27 +20 x#10#28 +38 x#10#29 +66 x#10#30
  +84 x#10#31 +15 x#10#32 +86 x#10#33 +37 x#10#34 +89 x#10#35 +34 x#10#36
  +60 x#10#37 +30 x#10#38 +41 x#10#39 +36 x#10#40 +9 x#10#41 +45 x#10#42
  +71 x#10#43 +8 x#10#44 +39 x#10#45 +70 x#10#46 +71 x#10#47 +49 x#10#48
  + x#10#49 +51 x#10#50
Subject to
 cap_1:
  +9 x#1#50 +12 x#1#49 +51 x#1#48 +73 x#1#47 +64 x#1#46 +53 x#1#45
  +75 x#1#44 +37 x#1#43 +35 x#1#42 +31 x#1#41 +11 x#1#40 +81 x#1#39
  +21 x#1#38 +3 x#1#37 +44 x#1#36 +78 x#1#35 +66 x#1#34 +98 x#1#33
  +73 x#1#32 +73 x#1#31 +73 x#1#30 +35 x#1#29 +20 x#1#28 + x#1#27
  +36 x#1#26 +94 x#1#25 +96 x#1#24 +64 x#1#23 +74 x#1#22 +83 x#1#21
  +83 x#1#20 +18 x#1#19 +14 x#1#18 +71 x#1#17 +7 x#1#16 +46 x#1#15
  +40 x#1#14 +78 x#1#13 +78 x#1#12 +100 x#1#11 +81 x#1#10 +49 x#1#9
  +35 x#1#8 +55 x#1#7 +28 x#1#6 +39 x#1#5 +34 x#1#4 +99 x#1#3
  +14 x#1#2 +60 x#1#1 <= 68
 cap_2:
  +28 x#1#50 +4 x#1#49 +11 x#1#48 +80 x#1#47 +77 x#1#46 +52 x#1#45
  +33 x#1#44 +8 x#1#43 +100 x#1#42 +88 x#1#41 +52 x#1#40 +38 x#1#39
  +10 x#1#38 +60 x#1#37 +79 x#1#36 +66 x#1#35 +29 x#1#34 +38 x#1#33
  +8 x#1#32 +6 x#1#31 +6 x#1#30 +8 x#1#29 +99 x#1#28 +70 x#1#27
  +24 x#1#26 +52 x#1#25 +55 x#1#24 +64 x#1#23 +25 x#1#22 +66 x#1#21
  +45 x#1#20 +53 x#1#19 +74 x#1#18 +13 x#1#17 +34 x#1#16 +93 x#1#15
  +88 x#1#14 +28 x#1#13 +23 x#1#12 +61 x#1#11 +43 x#1#10 +8 x#1#9
  +14 x#1#8 +37 x#1#7 +35 x#1#6 +15 x#1#5 +99 x#1#4 +84 x#1#3
  +30 x#1#2 +68 x#1#1 <= 58
 cap_3:
  +9 x#2#50 +12 x#2#49 +51 x#2#48 +73 x#2#47 +64 x#2#46 +53 x#2#45
  +75 x#2#44 +37 x#2#43 +35 x#2#42 +31 x#2#41 +11 x#2#40 +81 x#2#39
  +21 x#2#38 +3 x#2#37 +44 x#2#36 +78 x#2#35 +66 x#2#34 +98 x#2#33
  +73 x#2#32 +73 x#2#31 +73 x#2#30 +35 x#2#29 +20 x#2#28 + x#2#27
  +36 x#2#26 +94 x#2#25 +96 x#2#24 +64 x#2#23 +74 x#2#22 +83 x#2#21
  +83 x#2#20 +18 x#2#19 +14 x#2#18 +71 x#2#17 +7 x#2#16 +46 x#2#15
  +40 x#2#14 +78 x#2#13 +78 x#2#12 +100 x#2#11 +81 x#2#10 +49 x#2#9
  +35 x#2#8 +55 x#2#7 +28 x#2#6 +39 x#2#5 +34 x#2#4 +99 x#2#3
  +14 x#2#2 +60 x#2#1 <= 97
 cap_4:
  +28 x#2#50 +4 x#2#49 +11 x#2#48 +80 x#2#47 +77 x#2#46 +52 x#2#45
  +33 x#2#44 +8 x#2#43 +100 x#2#42 +88 x#2#41 +52 x#2#40 +38 x#2#39
  +10 x#2#38 +60 x#2#37 +79 x#2#36 +66 x#2#35 +29 x#2#34 +38 x#2#33
  +8 x#2#32 +6 x#2#31 +6 x#2#30 +8 x#2#29 +99 x#2#28 +70 x#2#27
  +24 x#2#26 +52 x#2#25 +55 x#2#24 +64 x#2#23 +25 x#2#22 +66 x#2#21
  +45 x#2#20 +53 x#2#19 +74 x#2#18 +13 x#2#17 +34 x#2#16 +93 x#2#15
  +88 x#2#14 +28 x#2#13 +23 x#2#12 +61 x#2#11 +43 x#2#10 +8 x#2#9
  +14 x#2#8 +37 x#2#7 +35 x#2#6 +15 x#2#5 +99 x#2#4 +84 x#2#3
  +30 x#2#2 +68 x#2#1 <= 73
 cap_5:
  +9 x#3#50 +12 x#3#49 +51 x#3#48 +73 x#3#47 +64 x#3#46 +53 x#3#45
  +75 x#3#44 +37 x#3#43 +35 x#3#42 +31 x#3#41 +11 x#3#40 +81 x#3#39
  +21 x#3#38 +3 x#3#37 +44 x#3#36 +78 x#3#35 +66 x#3#34 +98 x#3#33
  +73 x#3#32 +73 x#3#31 +73 x#3#30 +35 x#3#29 +20 x#3#28 + x#3#27
  +36 x#3#26 +94 x#3#25 +96 x#3#24 +64 x#3#23 +74 x#3#22 +83 x#3#21
  +83 x#3#20 +18 x#3#19 +14 x#3#18 +71 x#3#17 +7 x#3#16 +46 x#3#15
  +40 x#3#14 +78 x#3#13 +78 x#3#12 +100 x#3#11 +81 x#3#10 +49 x#3#9
  +35 x#3#8 +55 x#3#7 +28 x#3#6 +39 x#3#5 +34 x#3#4 +99 x#3#3
  +14 x#3#2 +60 x#3#1 <= 85
 cap_6:
  +28 x#3#50 +4 x#3#49 +11 x#3#48 +80 x#3#47 +77 x#3#46 +52 x#3#45
  +33 x#3#44 +8 x#3#43 +100 x#3#42 +88 x#3#41 +52 x#3#40 +38 x#3#39
  +10 x#3#38 +60 x#3#37 +79 x#3#36 +66 x#3#35 +29 x#3#34 +38 x#3#33
  +8 x#3#32 +6 x#3#31 +6 x#3#30 +8 x#3#29 +99 x#3#28 +70 x#3#27
  +24 x#3#26 +52 x#3#25 +55 x#3#24 +64 x#3#23 +25 x#3#22 +66 x#3#21
  +45 x#3#20 +53 x#3#19 +74 x#3#18 +13 x#3#17 +34 x#3#16 +93 x#3#15
  +88 x#3#14 +28 x#3#13 +23 x#3#12 +61 x#3#11 +43 x#3#10 +8 x#3#9
  +14 x#3#8 +37 x#3#7 +35 x#3#6 +15 x#3#5 +99 x#3#4 +84 x#3#3
  +30 x#3#2 +68 x#3#1 <= 62
 cap_7:
  +9 x#4#50 +12 x#4#49 +51 x#4#48 +73 x#4#47 +64 x#4#46 +53 x#4#45
  +75 x#4#44 +37 x#4#43 +35 x#4#42 +31 x#4#41 +11 x#4#40 +81 x#4#39
  +21 x#4#38 +3 x#4#37 +44 x#4#36 +78 x#4#35 +66 x#4#34 +98 x#4#33
  +73 x#4#32 +73 x#4#31 +73 x#4#30 +35 x#4#29 +20 x#4#28 + x#4#27
  +36 x#4#26 +94 x#4#25 +96 x#4#24 +64 x#4#23 +74 x#4#22 +83 x#4#21
  +83 x#4#20 +18 x#4#19 +14 x#4#18 +71 x#4#17 +7 x#4#16 +46 x#4#15
  +40 x#4#14 +78 x#4#13 +78 x#4#12 +100 x#4#11 +81 x#4#10 +49 x#4#9
  +35 x#4#8 +55 x#4#7 +28 x#4#6 +39 x#4#5 +34 x#4#4 +99 x#4#3
  +14 x#4#2 +60 x#4#1 <= 82
 cap_8:
  +28 x#4#50 +4 x#4#49 +11 x#4#48 +80 x#4#47 +77 x#4#46 +52 x#4#45
  +33 x#4#44 +8 x#4#43 +100 x#4#42 +88 x#4#41 +52 x#4#40 +38 x#4#39
  +10 x#4#38 +60 x#4#37 +79 x#4#36 +66 x#4#35 +29 x#4#34 +38 x#4#33
  +8 x#4#32 +6 x#4#31 +6 x#4#30 +8 x#4#29 +99 x#4#28 +70 x#4#27
  +24 x#4#26 +52 x#4#25 +55 x#4#24 +64 x#4#23 +25 x#4#22 +66 x#4#21
  +45 x#4#20 +53 x#4#19 +74 x#4#18 +13 x#4#17 +34 x#4#16 +93 x#4#15
  +88 x#4#14 +28 x#4#13 +23 x#4#12 +61 x#4#11 +43 x#4#10 +8 x#4#9
  +14 x#4#8 +37 x#4#7 +35 x#4#6 +15 x#4#5 +99 x#4#4 +84 x#4#3
  +30 x#4#2 +68 x#4#1 <= 66
 cap_9:
  +9 x#5#50 +12 x#5#49 +51 x#5#48 +73 x#5#47 +64 x#5#46 +53 x#5#45
  +75 x#5#44 +37 x#5#43 +35 x#5#42 +31 x#5#41 +11 x#5#40 +81 x#5#39
  +21 x#5#38 +3 x#5#37 +44 x#5#36 +78 x#5#35 +66 x#5#34 +98 x#5#33
  +73 x#5#32 +73 x#5#31 +73 x#5#30 +35 x#5#29 +20 x#5#28 + x#5#27
  +36 x#5#26 +94 x#5#25 +96 x#5#24 +64 x#5#23 +74 x#5#22 +83 x#5#21
  +83 x#5#20 +18 x#5#19 +14 x#5#18 +71 x#5#17 +7 x#5#16 +46 x#5#15
  +40 x#5#14 +78 x#5#13 +78 x#5#12 +100 x#5#11 +81 x#5#10 +49 x#5#9
  +35 x#5#8 +55 x#5#7 +28 x#5#6 +39 x#5#5 +34 x#5#4 +99 x#5#3
  +14 x#5#2 +60 x#5#1 <= 85
 cap_10:
  +28 x#5#50 +4 x#5#49 +11 x#5#48 +80 x#5#47 +77 x#5#46 +52 x#5#45
  +33 x#5#44 +8 x#5#43 +100 x#5#42 +88 x#5#41 +52 x#5#40 +38 x#5#39
  +10 x#5#38 +60 x#5#37 +79 x#5#36 +66 x#5#35 +29 x#5#34 +38 x#5#33
  +8 x#5#32 +6 x#5#31 +6 x#5#30 +8 x#5#29 +99 x#5#28 +70 x#5#27
  +24 x#5#26 +52 x#5#25 +55 x#5#24 +64 x#5#23 +25 x#5#22 +66 x#5#21
  +45 x#5#20 +53 x#5#19 +74 x#5#18 +13 x#5#17 +34 x#5#16 +93 x#5#15
  +88 x#5#14 +28 x#5#13 +23 x#5#12 +61 x#5#11 +43 x#5#10 +8 x#5#9
  +14 x#5#8 +37 x#5#7 +35 x#5#6 +15 x#5#5 +99 x#5#4 +84 x#5#3
  +30 x#5#2 +68 x#5#1 <= 48
 cap_11:
  +9 x#6#50 +12 x#6#49 +51 x#6#48 +73 x#6#47 +64 x#6#46 +53 x#6#45
  +75 x#6#44 +37 x#6#43 +35 x#6#42 +31 x#6#41 +11 x#6#40 +81 x#6#39
  +21 x#6#38 +3 x#6#37 +44 x#6#36 +78 x#6#35 +66 x#6#34 +98 x#6#33
  +73 x#6#32 +73 x#6#31 +73 x#6#30 +35 x#6#29 +20 x#6#28 + x#6#27
  +36 x#6#26 +94 x#6#25 +96 x#6#24 +64 x#6#23 +74 x#6#22 +83 x#6#21
  +83 x#6#20 +18 x#6#19 +14 x#6#18 +71 x#6#17 +7 x#6#16 +46 x#6#15
  +40 x#6#14 +78 x#6#13 +78 x#6#12 +100 x#6#11 +81 x#6#10 +49 x#6#9
  +35 x#6#8 +55 x#6#7 +28 x#6#6 +39 x#6#5 +34 x#6#4 +99 x#6#3
  +14 x#6#2 +60 x#6#1 <= 70
 cap_12:
  +28 x#6#50 +4 x#6#49 +11 x#6#48 +80 x#6#47 +77 x#6#46 +52 x#6#45
  +33 x#6#44 +8 x#6#43 +100 x#6#42 +88 x#6#41 +52 x#6#40 +38 x#6#39
  +10 x#6#38 +60 x#6#37 +79 x#6#36 +66 x#6#35 +29 x#6#34 +38 x#6#33
  +8 x#6#32 +6 x#6#31 +6 x#6#30 +8 x#6#29 +99 x#6#28 +70 x#6#27
  +24 x#6#26 +52 x#6#25 +55 x#6#24 +64 x#6#23 +25 x#6#22 +66 x#6#21
  +45 x#6#20 +53 x#6#19 +74 x#6#18 +13 x#6#17 +34 x#6#16 +93 x#6#15
  +88 x#6#14 +28 x#6#13 +23 x#6#12 +61 x#6#11 +43 x#6#10 +8 x#6#9
  +14 x#6#8 +37 x#6#7 +35 x#6#6 +15 x#6#5 +99 x#6#4 +84 x#6#3
  +30 x#6#2 +68 x#6#1 <= 75
 cap_13:
  +9 x#7#50 +12 x#7#49 +51 x#7#48 +73 x#7#47 +64 x#7#46 +53 x#7#45
  +75 x#7#44 +37 x#7#43 +35 x#7#42 +31 x#7#41 +11 x#7#40 +81 x#7#39
  +21 x#7#38 +3 x#7#37 +44 x#7#36 +78 x#7#35 +66 x#7#34 +98 x#7#33
  +73 x#7#32 +73 x#7#31 +73 x#7#30 +35 x#7#29 +20 x#7#28 + x#7#27
  +36 x#7#26 +94 x#7#25 +96 x#7#24 +64 x#7#23 +74 x#7#22 +83 x#7#21
  +83 x#7#20 +18 x#7#19 +14 x#7#18 +71 x#7#17 +7 x#7#16 +46 x#7#15
  +40 x#7#14 +78 x#7#13 +78 x#7#12 +100 x#7#11 +81 x#7#10 +49 x#7#9
  +35 x#7#8 +55 x#7#7 +28 x#7#6 +39 x#7#5 +34 x#7#4 +99 x#7#3
  +14 x#7#2 +60 x#7#1 <= 85
 cap_14:
  +28 x#7#50 +4 x#7#49 +11 x#7#48 +80 x#7#47 +77 x#7#46 +52 x#7#45
  +33 x#7#44 +8 x#7#43 +100 x#7#42 +88 x#7#41 +52 x#7#40 +38 x#7#39
  +10 x#7#38 +60 x#7#37 +79 x#7#36 +66 x#7#35 +29 x#7#34 +38 x#7#33
  +8 x#7#32 +6 x#7#31 +6 x#7#30 +8 x#7#29 +99 x#7#28 +70 x#7#27
  +24 x#7#26 +52 x#7#25 +55 x#7#24 +64 x#7#23 +25 x#7#22 +66 x#7#21
  +45 x#7#20 +53 x#7#19 +74 x#7#18 +13 x#7#17 +34 x#7#16 +93 x#7#15
  +88 x#7#14 +28 x#7#13 +23 x#7#12 +61 x#7#11 +43 x#7#10 +8 x#7#9
  +14 x#7#8 +37 x#7#7 +35 x#7#6 +15 x#7#5 +99 x#7#4 +84 x#7#3
  +30 x#7#2 +68 x#7#1 <= 84
 cap_15:
  +9 x#8#50 +12 x#8#49 +51 x#8#48 +73 x#8#47 +64 x#8#46 +53 x#8#45
  +75 x#8#44 +37 x#8#43 +35 x#8#42 +31 x#8#41 +11 x#8#40 +81 x#8#39
  +21 x#8#38 +3 x#8#37 +44 x#8#36 +78 x#8#35 +66 x#8#34 +98 x#8#33
  +73 x#8#32 +73 x#8#31 +73 x#8#30 +35 x#8#29 +20 x#8#28 + x#8#27
  +36 x#8#26 +94 x#8#25 +96 x#8#24 +64 x#8#23 +74 x#8#22 +83 x#8#21
  +83 x#8#20 +18 x#8#19 +14 x#8#18 +71 x#8#17 +7 x#8#16 +46 x#8#15
  +40 x#8#14 +78 x#8#13 +78 x#8#12 +100 x#8#11 +81 x#8#10 +49 x#8#9
  +35 x#8#8 +55 x#8#7 +28 x#8#6 +39 x#8#5 +34 x#8#4 +99 x#8#3
  +14 x#8#2 +60 x#8#1 <= 66
 cap_16:
  +28 x#8#50 +4 x#8#49 +11 x#8#48 +80 x#8#47 +77 x#8#46 +52 x#8#45
  +33 x#8#44 +8 x#8#43 +100 x#8#42 +88 x#8#41 +52 x#8#40 +38 x#8#39
  +10 x#8#38 +60 x#8#37 +79 x#8#36 +66 x#8#35 +29 x#8#34 +38 x#8#33
  +8 x#8#32 +6 x#8#31 +6 x#8#30 +8 x#8#29 +99 x#8#28 +70 x#8#27
  +24 x#8#26 +52 x#8#25 +55 x#8#24 +64 x#8#23 +25 x#8#22 +66 x#8#21
  +45 x#8#20 +53 x#8#19 +74 x#8#18 +13 x#8#17 +34 x#8#16 +93 x#8#15
  +88 x#8#14 +28 x#8#13 +23 x#8#12 +61 x#8#11 +43 x#8#10 +8 x#8#9
  +14 x#8#8 +37 x#8#7 +35 x#8#6 +15 x#8#5 +99 x#8#4 +84 x#8#3
  +30 x#8#2 +68 x#8#1 <= 66
 cap_17:
  +9 x#9#50 +12 x#9#49 +51 x#9#48 +73 x#9#47 +64 x#9#46 +53 x#9#45
  +75 x#9#44 +37 x#9#43 +35 x#9#42 +31 x#9#41 +11 x#9#40 +81 x#9#39
  +21 x#9#38 +3 x#9#37 +44 x#9#36 +78 x#9#35 +66 x#9#34 +98 x#9#33
  +73 x#9#32 +73 x#9#31 +73 x#9#30 +35 x#9#29 +20 x#9#28 + x#9#27
  +36 x#9#26 +94 x#9#25 +96 x#9#24 +64 x#9#23 +74 x#9#22 +83 x#9#21
  +83 x#9#20 +18 x#9#19 +14 x#9#18 +71 x#9#17 +7 x#9#16 +46 x#9#15
  +40 x#9#14 +78 x#9#13 +78 x#9#12 +100 x#9#11 +81 x#9#10 +49 x#9#9
  +35 x#9#8 +55 x#9#7 +28 x#9#6 +39 x#9#5 +34 x#9#4 +99 x#9#3
  +14 x#9#2 +60 x#9#1 <= 93
 cap_18:
  +28 x#9#50 +4 x#9#49 +11 x#9#48 +80 x#9#47 +77 x#9#46 +52 x#9#45
  +33 x#9#44 +8 x#9#43 +100 x#9#42 +88 x#9#41 +52 x#9#40 +38 x#9#39
  +10 x#9#38 +60 x#9#37 +79 x#9#36 +66 x#9#35 +29 x#9#34 +38 x#9#33
  +8 x#9#32 +6 x#9#31 +6 x#9#30 +8 x#9#29 +99 x#9#28 +70 x#9#27
  +24 x#9#26 +52 x#9#25 +55 x#9#24 +64 x#9#23 +25 x#9#22 +66 x#9#21
  +45 x#9#20 +53 x#9#19 +74 x#9#18 +13 x#9#17 +34 x#9#16 +93 x#9#15
  +88 x#9#14 +28 x#9#13 +23 x#9#12 +61 x#9#11 +43 x#9#10 +8 x#9#9
  +14 x#9#8 +37 x#9#7 +35 x#9#6 +15 x#9#5 +99 x#9#4 +84 x#9#3
  +30 x#9#2 +68 x#9#1 <= 47
 cap_19:
  +9 x#10#50 +12 x#10#49 +51 x#10#48 +73 x#10#47 +64 x#10#46 +53 x#10#45
  +75 x#10#44 +37 x#10#43 +35 x#10#42 +31 x#10#41 +11 x#10#40 +81 x#10#39
  +21 x#10#38 +3 x#10#37 +44 x#10#36 +78 x#10#35 +66 x#10#34 +98 x#10#33
  +73 x#10#32 +73 x#10#31 +73 x#10#30 +35 x#10#29 +20 x#10#28 + x#10#27
  +36 x#10#26 +94 x#10#25 +96 x#10#24 +64 x#10#23 +74 x#10#22 +83 x#10#21
  +83 x#10#20 +18 x#10#19 +14 x#10#18 +71 x#10#17 +7 x#10#16 +46 x#10#15
  +40 x#10#14 +78 x#10#13 +78 x#10#12 +100 x#10#11 +81 x#10#10 +49 x#10#9
  +35 x#10#8 +55 x#10#7 +28 x#10#6 +39 x#10#5 +34 x#10#4 +99 x#10#3
  +14 x#10#2 +60 x#10#1 <= 559
 cap_20:
  +28 x#10#50 +4 x#10#49 +11 x#10#48 +80 x#10#47 +77 x#10#46 +52 x#10#45
  +33 x#10#44 +8 x#10#43 +100 x#10#42 +88 x#10#41 +52 x#10#40 +38 x#10#39
  +10 x#10#38 +60 x#10#37 +79 x#10#36 +66 x#10#35 +29 x#10#34 +38 x#10#33
  +8 x#10#32 +6 x#10#31 +6 x#10#30 +8 x#10#29 +99 x#10#28 +70 x#10#27
  +24 x#10#26 +52 x#10#25 +55 x#10#24 +64 x#10#23 +25 x#10#22 +66 x#10#21
  +45 x#10#20 +53 x#10#19 +74 x#10#18 +13 x#10#17 +34 x#10#16 +93 x#10#15
  +88 x#10#14 +28 x#10#13 +23 x#10#12 +61 x#10#11 +43 x#10#10 +8 x#10#9
  +14 x#10#8 +37 x#10#7 +35 x#10#6 +15 x#10#5 +99 x#10#4 +84 x#10#3
  +30 x#10#2 +68 x#10#1 <= 511
 one_1:
  + x#10#1 + x#9#1 + x#8#1 + x#7#1 + x#6#1 + x#5#1
  + x#4#1 + x#3#1 + x#2#1 + x#1#1 <= 1
 one_2:
  + x#10#2 + x#9#2 + x#8#2 + x#7#2 + x#6#2 + x#5#2
  + x#4#2 + x#3#2 + x#2#2 + x#1#2 <= 1
 one_3:
  + x#10#3 + x#9#3 + x#8#3 + x#7#3 + x#6#3 + x#5#3
  + x#4#3 + x#3#3 + x#2#3 + x#1#3 <= 1
 one_4:
  + x#10#4 + x#9#4 + x#8#4 + x#7#4 + x#6#4 + x#5#4
  + x#4#4 + x#3#4 + x#2#4 + x#1#4 <= 1
 one_5:
  + x#10#5 + x#9#5 + x#8#5 + x#7#5 + x#6#5 + x#5#5
  + x#4#5 + x#3#5 + x#2#5 + x#1#5 <= 1
 one_6:
  + x#10#6 + x#9#6 + x#8#6 + x#7#6 + x#6#6 + x#5#6
  + x#4#6 + x#3#6 + x#2#6 + x#1#6 <= 1
 one_7:
  + x#10#7 + x#9#7 + x#8#7 + x#7#7 + x#6#7 + x#5#7
  + x#4#7 + x#3#7 + x#2#7 + x#1#7 <= 1
 one_8:
  + x#10#8 + x#9#8 + x#8#8 + x#7#8 + x#6#8 + x#5#8
  + x#4#8 + x#3#8 + x#2#8 + x#1#8 <= 1
 one_9:
  + x#10#9 + x#9#9 + x#8#9 + x#7#9 + x#6#9 + x#5#9
  + x#4#9 + x#3#9 + x#2#9 + x#1#9 <= 1
 one_10:
  + x#10#10 + x#9#10 + x#8#10 + x#7#10 + x#6#10 + x#5#10
  + x#4#10 + x#3#10 + x#2#10 + x#1#10 <= 1
 one_11:
  + x#10#11 + x#9#11 + x#8#11 + x#7#11 + x#6#11 + x#5#11
  + x#4#11 + x#3#11 + x#2#11 + x#1#11 <= 1
 one_12:
  + x#10#12 + x#9#12 + x#8#12 + x#7#12 + x#6#12 + x#5#12
  + x#4#12 + x#3#12 + x#2#12 + x#1#12 <= 1
 one_13:
  + x#10#13 + x#9#13 + x#8#13 + x#7#13 + x#6#13 + x#5#13
  + x#4#13 + x#3#13 + x#2#13 + x#1#13 <= 1
 one_14:
  + x#10#14 + x#9#14 + x#8#14 + x#7#14 + x#6#14 + x#5#14
  + x#4#14 + x#3#14 + x#2#14 + x#1#14 <= 1
 one_15:
  + x#10#15 + x#9#15 + x#8#15 + x#7#15 + x#6#15 + x#5#15
  + x#4#15 + x#3#15 + x#2#15 + x#1#15 <= 1
 one_16:
  + x#10#16 + x#9#16 + x#8#16 + x#7#16 + x#6#16 + x#5#16
  + x#4#16 + x#3#16 + x#2#16 + x#1#16 <= 1
 one_17:
  + x#10#17 + x#9#17 + x#8#17 + x#7#17 + x#6#17 + x#5#17
  + x#4#17 + x#3#17 + x#2#17 + x#1#17 <= 1
 one_18:
  + x#10#18 + x#9#18 + x#8#18 + x#7#18 + x#6#18 + x#5#18
  + x#4#18 + x#3#18 + x#2#18 + x#1#18 <= 1
 one_19:
  + x#10#19 + x#9#19 + x#8#19 + x#7#19 + x#6#19 + x#5#19
  + x#4#19 + x#3#19 + x#2#19 + x#1#19 <= 1
 one_20:
  + x#10#20 + x#9#20 + x#8#20 + x#7#20 + x#6#20 + x#5#20
  + x#4#20 + x#3#20 + x#2#20 + x#1#20 <= 1
 one_21:
  + x#10#21 + x#9#21 + x#8#21 + x#7#21 + x#6#21 + x#5#21
  + x#4#21 + x#3#21 + x#2#21 + x#1#21 <= 1
 one_22:
  + x#10#22 + x#9#22 + x#8#22 + x#7#22 + x#6#22 + x#5#22
  + x#4#22 + x#3#22 + x#2#22 + x#1#22 <= 1
 one_23:
  + x#10#23 + x#9#23 + x#8#23 + x#7#23 + x#6#23 + x#5#23
  + x#4#23 + x#3#23 + x#2#23 + x#1#23 <= 1
 one_24:
  + x#10#24 + x#9#24 + x#8#24 + x#7#24 + x#6#24 + x#5#24
  + x#4#24 + x#3#24 + x#2#24 + x#1#24 <= 1
 one_25:
  + x#10#25 + x#9#25 + x#8#25 + x#7#25 + x#6#25 + x#5#25
  + x#4#25 + x#3#25 + x#2#25 + x#1#25 <= 1
 one_26:
  + x#10#26 + x#9#26 + x#8#26 + x#7#26 + x#6#26 + x#5#26
  + x#4#26 + x#3#26 + x#2#26 + x#1#26 <= 1
 one_27:
  + x#10#27 + x#9#27 + x#8#27 + x#7#27 + x#6#27 + x#5#27
  + x#4#27 + x#3#27 + x#2#27 + x#1#27 <= 1
 one_28:
  + x#10#28 + x#9#28 + x#8#28 + x#7#28 + x#6#28 + x#5#28
  + x#4#28 + x#3#28 + x#2#28 + x#1#28 <= 1
 one_29:
  + x#10#29 + x#9#29 + x#8#29 + x#7#29 + x#6#29 + x#5#29
  + x#4#29 + x#3#29 + x#2#29 + x#1#29 <= 1
 one_30:
  + x#10#30 + x#9#30 + x#8#30 + x#7#30 + x#6#30 + x#5#30
  + x#4#30 + x#3#30 + x#2#30 + x#1#30 <= 1
 one_31:
  + x#10#31 + x#9#31 + x#8#31 + x#7#31 + x#6#31 + x#5#31
  + x#4#31 + x#3#31 + x#2#31 + x#1#31 <= 1
 one_32:
  + x#10#32 + x#9#32 + x#8#32 + x#7#32 + x#6#32 + x#5#32
  + x#4#32 + x#3#32 + x#2#32 + x#1#32 <= 1
 one_33:
  + x#10#33 + x#9#33 + x#8#33 + x#7#33 + x#6#33 + x#5#33
  + x#4#33 + x#3#33 + x#2#33 + x#1#33 <= 1
 one_34:
  + x#10#34 + x#9#34 + x#8#34 + x#7#34 + x#6#34 + x#5#34
  + x#4#34 + x#3#34 + x#2#34 + x#1#34 <= 1
 one_35:
  + x#10#35 + x#9#35 + x#8#35 + x#7#35 + x#6#35 + x#5#35
  + x#4#35 + x#3#35 + x#2#35 + x#1#35 <= 1
 one_36:
  + x#10#36 + x#9#36 + x#8#36 + x#7#36 + x#6#36 + x#5#36
  + x#4#36 + x#3#36 + x#2#36 + x#1#36 <= 1
 one_37:
  + x#10#37 + x#9#37 + x#8#37 + x#7#37 + x#6#37 + x#5#37
  + x#4#37 + x#3#37 + x#2#37 + x#1#37 <= 1
 one_38:
  + x#10#38 + x#9#38 + x#8#38 + x#7#38 + x#6#38 + x#5#38
  + x#4#38 + x#3#38 + x#2#38 + x#1#38 <= 1
 one_39:
  + x#10#39 + x#9#39 + x#8#39 + x#7#39 + x#6#39 + x#5#39
  + x#4#39 + x#3#39 + x#2#39 + x#1#39 <= 1
 one_40:
  + x#10#40 + x#9#40 + x#8#40 + x#7#40 + x#6#40 + x#5#40
  + x#4#40 + x#3#40 + x#2#40 + x#1#40 <= 1
 one_41:
  + x#10#41 + x#9#41 + x#8#41 + x#7#41 + x#6#41 + x#5#41
  + x#4#41 + x#3#41 + x#2#41 + x#1#41 <= 1
 one_42:
  + x#10#42 + x#9#42 + x#8#42 + x#7#42 + x#6#42 + x#5#42
  + x#4#42 + x#3#42 + x#2#42 + x#1#42 <= 1
 one_43:
  + x#10#43 + x#9#43 + x#8#43 + x#7#43 + x#6#43 + x#5#43
  + x#4#43 + x#3#43 + x#2#43 + x#1#43 <= 1
 one_44:
  + x#10#44 + x#9#44 + x#8#44 + x#7#44 + x#6#44 + x#5#44
  + x#4#44 + x#3#44 + x#2#44 + x#1#44 <= 1
 one_45:
  + x#10#45 + x#9#45 + x#8#45 + x#7#45 + x#6#45 + x#5#45
  + x#4#45 + x#3#45 + x#2#45 + x#1#45 <= 1
 one_46:
  + x#10#46 + x#9#46 + x#8#46 + x#7#46 + x#6#46 + x#5#46
  + x#4#46 + x#3#46 + x#2#46 + x#1#46 <= 1
 one_47:
  + x#10#47 + x#9#47 + x#8#47 + x#7#47 + x#6#47 + x#5#47
  + x#4#47 + x#3#47 + x#2#47 + x#1#47 <= 1
 one_48:
  + x#10#48 + x#9#48 + x#8#48 + x#7#48 + x#6#48 + x#5#48
  + x#4#48 + x#3#48 + x#2#48 + x#1#48 <= 1
 one_49:
  + x#10#49 + x#9#49 + x#8#49 + x#7#49 + x#6#49 + x#5#49
  + x#4#49 + x#3#49 + x#2#49 + x#1#49 <= 1
 one_50:
  + x#10#50 + x#9#50 + x#8#50 + x#7#50 + x#6#50 + x#5#50
  + x#4#50 + x#3#50 + x#2#50 + x#1#50 <= 1
Bounds
 0 <= x#1#1 <= 1
 0 <= x#1#2 <= 1
 0 <= x#1#3 <= 1
 0 <= x#1#4 <= 1
 0 <= x#1#5 <= 1
 0 <= x#1#6 <= 1
 0 <= x#1#7 <= 1
 0 <= x#1#8 <= 1
 0 <= x#1#9 <= 1
 0 <= x#1#10 <= 1
 0 <= x#1#11 <= 1
 0 <= x#1#12 <= 1
 0 <= x#1#13 <= 1
 0 <= x#1#14 <= 1
 0 <= x#1#15 <= 1
 0 <= x#1#16 <= 1
 0 <= x#1#17 <= 1
 0 <= x#1#18 <= 1
 0 <= x#1#19 <= 1
 0 <= x#1#20 <= 1
 0 <= x#1#21 <= 1
 0 <= x#1#22 <= 1
 0 <= x#1#23 <= 1
 0 <= x#1#24 <= 1
 0 <= x#1#25 <= 1
 0 <= x#1#26 <= 1
 0 <= x#1#27 <= 1
 0 <= x#1#28 <= 1
 0 <= x#1#29 <= 1
 0 <= x#1#30 <= 1
 0 <= x#1#31 <= 1
 0 <= x#1#32 <= 1
 0 <= x#1#33 <= 1
 0 <= x#1#34 <= 1
 0 <= x#1#35 <= 1
 0 <= x#1#36 <= 1
 0 <= x#1#37 <= 1
 0 <= x#1#38 <= 1
 0 <= x#1#39 <= 1
 0 <= x#1#40 <= 1
 0 <= x#1#41 <= 1
 0 <= x#1#42 <= 1
 0 <= x#1#43 <= 1
 0 <= x#1#44 <= 1
 0 <= x#1#45 <= 1
 0 <= x#1#46 <= 1
 0 <= x#1#47 <= 1
 0 <= x#1#48 <= 1
 0 <= x#1#49 <= 1
 0 <= x#1#50 <= 1
 0 <= x#2#1 <= 1
 0 <= x#2#2 <= 1
 0 <= x#2#3 <= 1
 0 <= x#2#4 <= 1
 0 <= x#2#5 <= 1
 0 <= x#2#6 <= 1
 0 <= x#2#7 <= 1
 0 <= x#2#8 <= 1
 0 <= x#2#9 <= 1
 0 <= x#2#10 <= 1
 0 <= x#2#11 <= 1
 0 <= x#2#12 <= 1
 0 <= x#2#13 <= 1
 0 <= x#2#14 <= 1
 0 <= x#2#15 <= 1
 0 <= x#2#16 <= 1
 0 <= x#2#17 <= 1
 0 <= x#2#18 <= 1
 0 <= x#2#19 <= 1
 0 <= x#2#20 <= 1
 0 <= x#2#21 <= 1
 0 <= x#2#22 <= 1
 0 <= x#2#23 <= 1
 0 <= x#2#24 <= 1
 0 <= x#2#25 <= 1
 0 <= x#2#26 <= 1
 0 <= x#2#27 <= 1
 0 <= x#2#28 <= 1
 0 <= x#2#29 <= 1
 0 <= x#2#30 <= 1
 0 <= x#2#31 <= 1
 0 <= x#2#32 <= 1
 0 <= x#2#33 <= 1
 0 <= x#2#34 <= 1
 0 <= x#2#35 <= 1
 0 <= x#2#36 <= 1
 0 <= x#2#37 <= 1
 0 <= x#2#38 <= 1
 0 <= x#2#39 <= 1
 0 <= x#2#40 <= 1
 0 <= x#2#41 <= 1
 0 <= x#2#42 <= 1
 0 <= x#2#43 <= 1
 0 <= x#2#44 <= 1
 0 <= x#2#45 <= 1
 0 <= x#2#46 <= 1
 0 <= x#2#47 <= 1
 0 <= x#2#48 <= 1
 0 <= x#2#49 <= 1
 0 <= x#2#50 <= 1
 0 <= x#3#1 <= 1
 0 <= x#3#2 <= 1
 0 <= x#3#3 <= 1
 0 <= x#3#4 <= 1
 0 <= x#3#5 <= 1
 0 <= x#3#6 <= 1
 0 <= x#3#7 <= 1
 0 <= x#3#8 <= 1
 0 <= x#3#9 <= 1
 0 <= x#3#10 <= 1
 0 <= x#3#11 <= 1
 0 <= x#3#12 <= 1
 0 <= x#3#13 <= 1
 0 <= x#3#14 <= 1
 0 <= x#3#15 <= 1
 0 <= x#3#16 <= 1
 0 <= x#3#17 <= 1
 0 <= x#3#18 <= 1
 0 <= x#3#19 <= 1
 0 <= x#3#20 <= 1
 0 <= x#3#21 <= 1
 0 <= x#3#22 <= 1
 0 <= x#3#23 <= 1
 0 <= x#3#24 <= 1
 0 <= x#3#25 <= 1
 0 <= x#3#26 <= 1
 0 <= x#3#27 <= 1
 0 <= x#3#28 <= 1
 0 <= x#3#29 <= 1
 0 <= x#3#30 <= 1
 0 <= x#3#31 <= 1
 0 <= x#3#32 <= 1
 0 <= x#3#33 <= 1
 0 <= x#3#34 <= 1
 0 <= x#3#35 <= 1
 0 <= x#3#36 <= 1
 0 <= x#3#37 <= 1
 0 <= x#3#38 <= 1
 0 <= x#3#39 <= 1
 0 <= x#3#40 <= 1
 0 <= x#3#41 <= 1
 0 <= x#3#42 <= 1
 0 <= x#3#43 <= 1
 0 <= x#3#44 <= 1
 0 <= x#3#45 <= 1
 0 <= x#3#46 <= 1
 0 <= x#3#47 <= 1
 0 <= x#3#48 <= 1
 0 <= x#3#49 <= 1
 0 <= x#3#50 <= 1
 0 <= x#4#1 <= 1
 0 <= x#4#2 <= 1
 0 <= x#4#3 <= 1
 0 <= x#4#4 <= 1
 0 <= x#4#5 <= 1
 0 <= x#4#6 <= 1
 0 <= x#4#7 <= 1
 0 <= x#4#8 <= 1
 0 <= x#4#9 <= 1
 0 <= x#4#10 <= 1
 0 <= x#4#11 <= 1
 0 <= x#4#12 <= 1
 0 <= x#4#13 <= 1
 0 <= x#4#14 <= 1
 0 <= x#4#15 <= 1
 0 <= x#4#16 <= 1
 0 <= x#4#17 <= 1
 0 <= x#4#18 <= 1
 0 <= x#4#19 <= 1
 0 <= x#4#20 <= 1
 0 <= x#4#21 <= 1
 0 <= x#4#22 <= 1
 0 <= x#4#23 <= 1
 0 <= x#4#24 <= 1
 0 <= x#4#25 <= 1
 0 <= x#4#26 <= 1
 0 <= x#4#27 <= 1
 0 <= x#4#28 <= 1
 0 <= x#4#29 <= 1
 0 <= x#4#30 <= 1
 0 <= x#4#31 <= 1
 0 <= x#4#32 <= 1
 0 <= x#4#33 <= 1
 0 <= x#4#34 <= 1
 0 <= x#4#35 <= 1
 0 <= x#4#36 <= 1
 0 <= x#4#37 <= 1
 0 <= x#4#38 <= 1
 0 <= x#4#39 <= 1
 0 <= x#4#40 <= 1
 0 <= x#4#41 <= 1
 0 <= x#4#42 <= 1
 0 <= x#4#43 <= 1
 0 <= x#4#44 <= 1
 0 <= x#4#45 <= 1
 0 <= x#4#46 <= 1
 0 <= x#4#47 <= 1
 0 <= x#4#48 <= 1
 0 <= x#4#49 <= 1
 0 <= x#4#50 <= 1
 0 <= x#5#1 <= 1
 0 <= x#5#2 <= 1
 0 <= x#5#3 <= 1
 0 <= x#5#4 <= 1
 0 <= x#5#5 <= 1
 0 <= x#5#6 <= 1
 0 <= x#5#7 <= 1
 0 <= x#5#8 <= 1
 0 <= x#5#9 <= 1
 0 <= x#5#10 <= 1
 0 <= x#5#11 <= 1
 0 <= x#5#12 <= 1
 0 <= x#5#13 <= 1
 0 <= x#5#14 <= 1
 0 <= x#5#15 <= 1
 0 <= x#5#16 <= 1
 0 <= x#5#17 <= 1
 0 <= x#5#18 <= 1
 0 <= x#5#19 <= 1
 0 <= x#5#20 <= 1
 0 <= x#5#21 <= 1
 0 <= x#5#22 <= 1
 0 <= x#5#23 <= 1
 0 <= x#5#24 <= 1
 0 <= x#5#25 <= 1
 0 <= x#5#26 <= 1
 0 <= x#5#27 <= 1
 0 <= x#5#28 <= 1
 0 <= x#5#29 <= 1
 0 <= x#5#30 <= 1
 0 <= x#5#31 <= 1
 0 <= x#5#32 <= 1
 0 <= x#5#33 <= 1
 0 <= x#5#34 <= 1
 0 <= x#5#35 <= 1
 0 <= x#5#36 <= 1
 0 <= x#5#37 <= 1
 0 <= x#5#38 <= 1
 0 <= x#5#39 <= 1
 0 <= x#5#40 <= 1
 0 <= x#5#41 <= 1
 0 <= x#5#42 <= 1
 0 <= x#5#43 <= 1
 0 <= x#5#44 <= 1
 0 <= x#5#45 <= 1
 0 <= x#5#46 <= 1
 0 <= x#5#47 <= 1
 0 <= x#5#48 <= 1
 0 <= x#5#49 <= 1
 0 <= x#5#50 <= 1
 0 <= x#6#1 <= 1
 0 <= x#6#2 <= 1
 0 <= x#6#3 <= 1
 0 <= x#6#4 <= 1
 0 <= x#6#5 <= 1
 0 <= x#6#6 <= 1
 0 <= x#6#7 <= 1
 0 <= x#6#8 <= 1
 0 <= x#6#9 <= 1
 0 <= x#6#10 <= 1
 0 <= x#6#11 <= 1
 0 <= x#6#12 <= 1
 0 <= x#6#13 <= 1
 0 <= x#6#14 <= 1
 0 <= x#6#15 <= 1
 0 <= x#6#16 <= 1
 0 <= x#6#17 <= 1
 0 <= x#6#18 <= 1
 0 <= x#6#19 <= 1
 0 <= x#6#20 <= 1
 0 <= x#6#21 <= 1
 0 <= x#6#22 <= 1
 0 <= x#6#23 <= 1
 0 <= x#6#24 <= 1
 0 <= x#6#25 <= 1
 0 <= x#6#26 <= 1
 0 <= x#6#27 <= 1
 0 <= x#6#28 <= 1
 0 <= x#6#29 <= 1
 0 <= x#6#30 <= 1
 0 <= x#6#31 <= 1
 0 <= x#6#32 <= 1
 0 <= x#6#33 <= 1
 0 <= x#6#34 <= 1
 0 <= x#6#35 <= 1
 0 <= x#6#36 <= 1
 0 <= x#6#37 <= 1
 0 <= x#6#38 <= 1
 0 <= x#6#39 <= 1
 0 <= x#6#40 <= 1
 0 <= x#6#41 <= 1
 0 <= x#6#42 <= 1
 0 <= x#6#43 <= 1
 0 <= x#6#44 <= 1
 0 <= x#6#45 <= 1
 0 <= x#6#46 <= 1
 0 <= x#6#47 <= 1
 0 <= x#6#48 <= 1
 0 <= x#6#49 <= 1
 0 <= x#6#50 <= 1
 0 <= x#7#1 <= 1
 0 <= x#7#2 <= 1
 0 <= x#7#3 <= 1
 0 <= x#7#4 <= 1
 0 <= x#7#5 <= 1
 0 <= x#7#6 <= 1
 0 <= x#7#7 <= 1
 0 <= x#7#8 <= 1
 0 <= x#7#9 <= 1
 0 <= x#7#10 <= 1
 0 <= x#7#11 <= 1
 0 <= x#7#12 <= 1
 0 <= x#7#13 <= 1
 0 <= x#7#14 <= 1
 0 <= x#7#15 <= 1
 0 <= x#7#16 <= 1
 0 <= x#7#17 <= 1
 0 <= x#7#18 <= 1
 0 <= x#7#19 <= 1
 0 <= x#7#20 <= 1
 0 <= x#7#21 <= 1
 0 <= x#7#22 <= 1
 0 <= x#7#23 <= 1
 0 <= x#7#24 <= 1
 0 <= x#7#25 <= 1
 0 <= x#7#26 <= 1
 0 <= x#7#27 <= 1
 0 <= x#7#28 <= 1
 0 <= x#7#29 <= 1
 0 <= x#7#30 <= 1
 0 <= x#7#31 <= 1
 0 <= x#7#32 <= 1
 0 <= x#7#33 <= 1
 0 <= x#7#34 <= 1
 0 <= x#7#35 <= 1
 0 <= x#7#36 <= 1
 0 <= x#7#37 <= 1
 0 <= x#7#38 <= 1
 0 <= x#7#39 <= 1
 0 <= x#7#40 <= 1
 0 <= x#7#41 <= 1
 0 <= x#7#42 <= 1
 0 <= x#7#43 <= 1
 0 <= x#7#44 <= 1
 0 <= x#7#45 <= 1
 0 <= x#7#46 <= 1
 0 <= x#7#47 <= 1
 0 <= x#7#48 <= 1
 0 <= x#7#49 <= 1
 0 <= x#7#50 <= 1
 0 <= x#8#1 <= 1
 0 <= x#8#2 <= 1
 0 <= x#8#3 <= 1
 0 <= x#8#4 <= 1
 0 <= x#8#5 <= 1
 0 <= x#8#6 <= 1
 0 <= x#8#7 <= 1
 0 <= x#8#8 <= 1
 0 <= x#8#9 <= 1
 0 <= x#8#10 <= 1
 0 <= x#8#11 <= 1
 0 <= x#8#12 <= 1
 0 <= x#8#13 <= 1
 0 <= x#8#14 <= 1
 0 <= x#8#15 <= 1
 0 <= x#8#16 <= 1
 0 <= x#8#17 <= 1
 0 <= x#8#18 <= 1
 0 <= x#8#19 <= 1
 0 <= x#8#20 <= 1
 0 <= x#8#21 <= 1
 0 <= x#8#22 <= 1
 0 <= x#8#23 <= 1
 0 <= x#8#24 <= 1
 0 <= x#8#25 <= 1
 0 <= x#8#26 <= 1
 0 <= x#8#27 <= 1
 0 <= x#8#28 <= 1
 0 <= x#8#29 <= 1
 0 <= x#8#30 <= 1
 0 <= x#8#31 <= 1
 0 <= x#8#32 <= 1
 0 <= x#8#33 <= 1
 0 <= x#8#34 <= 1
 0 <= x#8#35 <= 1
 0 <= x#8#36 <= 1
 0 <= x#8#37 <= 1
 0 <= x#8#38 <= 1
 0 <= x#8#39 <= 1
 0 <= x#8#40 <= 1
 0 <= x#8#41 <= 1
 0 <= x#8#42 <= 1
 0 <= x#8#43 <= 1
 0 <= x#8#44 <= 1
 0 <= x#8#45 <= 1
 0 <= x#8#46 <= 1
 0 <= x#8#47 <= 1
 0 <= x#8#48 <= 1
 0 <= x#8#49 <= 1
 0 <= x#8#50 <= 1
 0 <= x#9#1 <= 1
 0 <= x#9#2 <= 1
 0 <= x#9#3 <= 1
 0 <= x#9#4 <= 1
 0 <= x#9#5 <= 1
 0 <= x#9#6 <= 1
 0 <= x#9#7 <= 1
 0 <= x#9#8 <= 1
 0 <= x#9#9 <= 1
 0 <= x#9#10 <= 1
 0 <= x#9#11 <= 1
 0 <= x#9#12 <= 1
 0 <= x#9#13 <= 1
 0 <= x#9#14 <= 1
 0 <= x#9#15 <= 1
 0 <= x#9#16 <= 1
 0 <= x#9#17 <= 1
 0 <= x#9#18 <= 1
 0 <= x#9#19 <= 1
 0 <= x#9#20 <= 1
 0 <= x#9#21 <= 1
 0 <= x#9#22 <= 1
 0 <= x#9#23 <= 1
 0 <= x#9#24 <= 1
 0 <= x#9#25 <= 1
 0 <= x#9#26 <= 1
 0 <= x#9#27 <= 1
 0 <= x#9#28 <= 1
 0 <= x#9#29 <= 1
 0 <= x#9#30 <= 1
 0 <= x#9#31 <= 1
 0 <= x#9#32 <= 1
 0 <= x#9#33 <= 1
 0 <= x#9#34 <= 1
 0 <= x#9#35 <= 1
 0 <= x#9#36 <= 1
 0 <= x#9#37 <= 1
 0 <= x#9#38 <= 1
 0 <= x#9#39 <= 1
 0 <= x#9#40 <= 1
 0 <= x#9#41 <= 1
 0 <= x#9#42 <= 1
 0 <= x#9#43 <= 1
 0 <= x#9#44 <= 1
 0 <= x#9#45 <= 1
 0 <= x#9#46 <= 1
 0 <= x#9#47 <= 1
 0 <= x#9#48 <= 1
 0 <= x#9#49 <= 1
 0 <= x#9#50 <= 1
 0 <= x#10#1 <= 1
 0 <= x#10#2 <= 1
 0 <= x#10#3 <= 1
 0 <= x#10#4 <= 1
 0 <= x#10#5 <= 1
 0 <= x#10#6 <= 1
 0 <= x#10#7 <= 1
 0 <= x#10#8 <= 1
 0 <= x#10#9 <= 1
 0 <= x#10#10 <= 1
 0 <= x#10#11 <= 1
 0 <= x#10#12 <= 1
 0 <= x#10#13 <= 1
 0 <= x#10#14 <= 1
 0 <= x#10#15 <= 1
 0 <= x#10#16 <= 1
 0 <= x#10#17 <= 1
 0 <= x#10#18 <= 1
 0 <= x#10#19 <= 1
 0 <= x#10#20 <= 1
 0 <= x#10#21 <= 1
 0 <= x#10#22 <= 1
 0 <= x#10#23 <= 1
 0 <= x#10#24 <= 1
 0 <= x#10#25 <= 1
 0 <= x#10#26 <= 1
 0 <= x#10#27 <= 1
 0 <= x#10#28 <= 1
 0 <= x#10#29 <= 1
 0 <= x#10#30 <= 1
 0 <= x#10#31 <= 1
 0 <= x#10#32 <= 1
 0 <= x#10#33 <= 1
 0 <= x#10#34 <= 1
 0 <= x#10#35 <= 1
 0 <= x#10#36 <= 1
 0 <= x#10#37 <= 1
 0 <= x#10#38 <= 1
 0 <= x#10#39 <= 1
 0 <= x#10#40 <= 1
 0 <= x#10#41 <= 1
 0 <= x#10#42 <= 1
 0 <= x#10#43 <= 1
 0 <= x#10#44 <= 1
 0 <= x#10#45 <= 1
 0 <= x#10#46 <= 1
 0 <= x#10#47 <= 1
 0 <= x#10#48 <= 1
 0 <= x#10#49 <= 1
 0 <= x#10#50 <= 1
General
 x#1#1
 x#1#2
 x#1#3
 x#1#4
 x#1#5
 x#1#6
 x#1#7
 x#1#8
 x#1#9
 x#1#10
 x#1#11
 x#1#12
 x#1#13
 x#1#14
 x#1#15
 x#1#16
 x#1#17
 x#1#18
 x#1#19
 x#1#20
 x#1#21
 x#1#22
 x#1#23
 x#1#24
 x#1#25
 x#1#26
 x#1#27
 x#1#28
 x#1#29
 x#1#30
 x#1#31
 x#1#32
 x#1#33
 x#1#34
 x#1#35
 x#1#36
 x#1#37
 x#1#38
 x#1#39
 x#1#40
 x#1#41
 x#1#42
 x#1#43
 x#1#44
 x#1#45
 x#1#46
 x#1#47
 x#1#48
 x#1#49
 x#1#50
 x#2#1
 x#2#2
 x#2#3
 x#2#4
 x#2#5
 x#2#6
 x#2#7
 x#2#8
 x#2#9
 x#2#10
 x#2#11
 x#2#12
 x#2#13
 x#2#14
 x#2#15
 x#2#16
 x#2#17
 x#2#18
 x#2#19
 x#2#20
 x#2#21
 x#2#22
 x#2#23
 x#2#24
 x#2#25
 x#2#26
 x#2#27
 x#2#28
 x#2#29
 x#2#30
 x#2#31
 x#2#32
 x#2#33
 x#2#34
 x#2#35
 x#2#36
 x#2#37
 x#2#38
 x#2#39
 x#2#40
 x#2#41
 x#2#42
 x#2#43
 x#2#44
 x#2#45
 x#2#46
 x#2#47
 x#2#48
 x#2#49
 x#2#50
 x#3#1
 x#3#2
 x#3#3
 x#3#4
 x#3#5
 x#3#6
 x#3#7
 x#3#8
 x#3#9
 x#3#10
 x#3#11
 x#3#12
 x#3#13
 x#3#14
 x#3#15
 x#3#16
 x#3#17
 x#3#18
 x#3#19
 x#3#20
 x#3#21
 x#3#22
 x#3#23
 x#3#24
 x#3#25
 x#3#26
 x#3#27
 x#3#28
 x#3#29
 x#3#30
 x#3#31
 x#3#32
 x#3#33
 x#3#34
 x#3#35
 x#3#36
 x#3#37
 x#3#38
 x#3#39
 x#3#40
 x#3#41
 x#3#42
 x#3#43
 x#3#44
 x#3#45
 x#3#46
 x#3#47
 x#3#48
 x#3#49
 x#3#50
 x#4#1
 x#4#2
 x#4#3
 x#4#4
 x#4#5
 x#4#6
 x#4#7
 x#4#8
 x#4#9
 x#4#10
 x#4#11
 x#4#12
 x#4#13
 x#4#14
 x#4#15
 x#4#16
 x#4#17
 x#4#18
 x#4#19
 x#4#20
 x#4#21
 x#4#22
 x#4#23
 x#4#24
 x#4#25
 x#4#26
 x#4#27
 x#4#28
 x#4#29
 x#4#30
 x#4#31
 x#4#32
 x#4#33
 x#4#34
 x#4#35
 x#4#36
 x#4#37
 x#4#38
 x#4#39
 x#4#40
 x#4#41
 x#4#42
 x#4#43
 x#4#44
 x#4#45
 x#4#46
 x#4#47
 x#4#48
 x#4#49
 x#4#50
 x#5#1
 x#5#2
 x#5#3
 x#5#4
 x#5#5
 x#5#6
 x#5#7
 x#5#8
 x#5#9
 x#5#10
 x#5#11
 x#5#12
 x#5#13
 x#5#14
 x#5#15
 x#5#16
 x#5#17
 x#5#18
 x#5#19
 x#5#20
 x#5#21
 x#5#22
 x#5#23
 x#5#24
 x#5#25
 x#5#26
 x#5#27
 x#5#28
 x#5#29
 x#5#30
 x#5#31
 x#5#32
 x#5#33
 x#5#34
 x#5#35
 x#5#36
 x#5#37
 x#5#38
 x#5#39
 x#5#40
 x#5#41
 x#5#42
 x#5#43
 x#5#44
 x#5#45
 x#5#46
 x#5#47
 x#5#48
 x#5#49
 x#5#50
 x#6#1
 x#6#2
 x#6#3
 x#6#4
 x#6#5
 x#6#6
 x#6#7
 x#6#8
 x#6#9
 x#6#10
 x#6#11
 x#6#12
 x#6#13
 x#6#14
 x#6#15
 x#6#16
 x#6#17
 x#6#18
 x#6#19
 x#6#20
 x#6#21
 x#6#22
 x#6#23
 x#6#24
 x#6#25
 x#6#26
 x#6#27
 x#6#28
 x#6#29
 x#6#30
 x#6#31
 x#6#32
 x#6#33
 x#6#34
 x#6#35
 x#6#36
 x#6#37
 x#6#38
 x#6#39
 x#6#40
 x#6#41
 x#6#42
 x#6#43
 x#6#44
 x#6#45
 x#6#46
 x#6#47
 x#6#48
 x#6#49
 x#6#50
 x#7#1
 x#7#2
 x#7#3
 x#7#4
 x#7#5
 x#7#6
 x#7#7
 x#7#8
 x#7#9
 x#7#10
 x#7#11
 x#7#12
 x#7#13
 x#7#14
 x#7#15
 x#7#16
 x#7#17
 x#7#18
 x#7#19
 x#7#20
 x#7#21
 x#7#22
 x#7#23
 x#7#24
 x#7#25
 x#7#26
 x#7#27
 x#7#28
 x#7#29
 x#7#30
 x#7#31
 x#7#32
 x#7#33
 x#7#34
 x#7#35
 x#7#36
 x#7#37
 x#7#38
 x#7#39
 x#7#40
 x#7#41
 x#7#42
 x#7#43
 x#7#44
 x#7#45
 x#7#46
 x#7#47
 x#7#48
 x#7#49
 x#7#50
 x#8#1
 x#8#2
 x#8#3
 x#8#4
 x#8#5
 x#8#6
 x#8#7
 x#8#8
 x#8#9
 x#8#10
 x#8#11
 x#8#12
 x#8#13
 x#8#14
 x#8#15
 x#8#16
 x#8#17
 x#8#18
 x#8#19
 x#8#20
 x#8#21
 x#8#22
 x#8#23
 x#8#24
 x#8#25
 x#8#26
 x#8#27
 x#8#28
 x#8#29
 x#8#30
 x#8#31
 x#8#32
 x#8#33
 x#8#34
 x#8#35
 x#8#36
 x#8#37
 x#8#38
 x#8#39
 x#8#40
 x#8#41
 x#8#42
 x#8#43
 x#8#44
 x#8#45
 x#8#46
 x#8#47
 x#8#48
 x#8#49
 x#8#50
 x#9#1
 x#9#2
 x#9#3
 x#9#4
 x#9#5
 x#9#6
 x#9#7
 x#9#8
 x#9#9
 x#9#10
 x#9#11
 x#9#12
 x#9#13
 x#9#14
 x#9#15
 x#9#16
 x#9#17
 x#9#18
 x#9#19
 x#9#20
 x#9#21
 x#9#22
 x#9#23
 x#9#24
 x#9#25
 x#9#26
 x#9#27
 x#9#28
 x#9#29
 x#9#30
 x#9#31
 x#9#32
 x#9#33
 x#9#34
 x#9#35
 x#9#36
 x#9#37
 x#9#38
 x#9#39
 x#9#40
 x#9#41
 x#9#42
 x#9#43
 x#9#44
 x#9#45
 x#9#46
 x#9#47
 x#9#48
 x#9#49
 x#9#50
 x#10#1
 x#10#2
 x#10#3
 x#10#4
 x#10#5
 x#10#6
 x#10#7
 x#10#8
 x#10#9
 x#10#10
 x#10#11
 x#10#12
 x#10#13
 x#10#14
 x#10#15
 x#10#16
 x#10#17
 x#10#18
 x#10#19
 x#10#20
 x#10#21
 x#10#22
 x#10#23
 x#10#24
 x#10#25
 x#10#26
 x#10#27
 x#10#28
 x#10#29
 x#10#30
 x#10#31
 x#10#32
 x#10#33
 x#10#34
 x#10#35
 x#10#36
 x#10#37
 x#10#38
 x#10#39
 x#10#40
 x#10#41
 x#10#42
 x#10#43
 x#10#44
 x#10#45
 x#10#46
 x#10#47
 x#10#48
 x#10#49
 x#10#50
End
